NAME : portcgen-20-18
COMMENT : portcgen N=20, seed=18
TYPE : TSP
DIMENSION : 20
EDGE_WEIGHT_TYPE : EUC_2D
NODE_COORD_SECTION
1 277095 93079
2 -258833 421639
3 152216 553113
4 148569 103008
5 87579 168041
6 -181124 185952
7 -62103 311582
8 -365902 -334839
9 128752 252253
10 273270 174754
11 378206 -258976
12 114718 -376383
13 -71983 -70269
14 85630 278367
15 165734 -549872
16 -7896 299941
17 42935 -92915
18 -13187 5604
19 305660 24679
20 106143 -14013
